
ACE v2.1 

  instance
    name:PyCSP

  Loading variables...

  Loading constraints...

  domains
    types:1  values:135  sizes:[3:45]
  variables
    count:45  arrays:1  degrees:[35:4,36:20,37:21]
  constraints
    count:377  specific:17  groups:2  arities:[4:360,9:5,10:8,18:4]
    distribution:[Cardinality:5,ConstraintIntension:360,LexicographicLE:12]
    intStructures:(1,shared:359)
    wck:0.65  cpu:1.25  mem:35M948

  Building solver... 

  solver
    guaranteedAC:true
    wck:0.70  cpu:1.265  mem:38M177

  preprocessing
    revisions:(1440,useless=1440)  values:135  unsat:false
    wck:0.017  cpu:1.265  mem:38M361

    run0  dpts:13..17  effs:224  fails:10  wrgs:15  wck:0.00  ngds:1
    run1  dpts:1..11  effs:398  fails:21  wrgs:32  wck:0.05  ngds:5
    run2  dpts:1..12  effs:615  fails:33  wrgs:55  wck:0.05  ngds:8
    run3  dpts:5..10  effs:854  fails:46  wrgs:79  wck:0.07  ngds:14
    run4  dpts:1..9  effs:1054  fails:60  wrgs:108  wck:0.08  ngds:19
    run5  dpts:4..11  effs:1288  fails:76  wrgs:130  wck:0.10  ngds:23
    run6  dpts:3..10  effs:1495  fails:93  wrgs:157  wck:0.12  ngds:28
    run7  dpts:2..9  effs:1860  fails:112  wrgs:190  wck:0.12  ngds:34
    run8  dpts:2..7  effs:2126  fails:133  wrgs:228  wck:0.15  ngds:37
    run9  dpts:4..11  effs:2516  fails:156  wrgs:267  wck:0.15  ngds:38
    run10  dpts:0..10  effs:3000  fails:181  wrgs:312  wck:0.17  ngds:40
    run11  dpts:2..13  effs:3414  fails:209  wrgs:353  wck:0.18  ngds:45
    run12  dpts:3..11  effs:3983  fails:240  wrgs:414  wck:0.20  ngds:49
    run13  dpts:1..7  effs:4477  fails:274  wrgs:474  wck:0.23  ngds:55
    run14  dpts:0..10  effs:5224  fails:311  wrgs:539  wck:0.25  ngds:62
    run15  dpts:1..9  effs:6088  fails:352  wrgs:614  wck:0.27  ngds:66
    run16  dpts:1..12  effs:6923  fails:397  wrgs:700  wck:0.30  ngds:73
    run17  dpts:0..10  effs:7875  fails:447  wrgs:793  wck:0.32  ngds:77
    run18  dpts:0..9  effs:9045  fails:502  wrgs:897  wck:0.35  ngds:82
    run19  dpts:0..10  effs:10222  fails:563  wrgs:1018  wck:0.40  ngds:82
    run20  dpts:0..5  effs:10321  fails:570  wrgs:1032  wck:0.43  ngds:82

  global
    effs:10321  revisions:(749400,useless=744492)  ngds:82
    stop:FULL_EXPLORATION  wrgs:1032
    wck:1.15  cpu:1.421  mem:39M410

s UNSATISFIABLE

d WRONG DECISIONS 1032
d FOUND SOLUTIONS 0
d COMPLETE EXPLORATION

c real time : 1.421
